Version identifier: 22.1.0.0 | 2022-03-09 | 1a383f8ce
CPXPARAM_Threads                                 1
CPXPARAM_MIP_Strategy_VariableSelect             3
CPXPARAM_TimeLimit                               599.99557380299996
Found incumbent of value 0.000000 after 0.00 sec. (0.40 ticks)

Root node processing (before b&c):
  Real time             =    0.00 sec. (0.45 ticks)
Sequential b&c:
  Real time             =    0.00 sec. (0.00 ticks)
                          ------------
Total (root+branch&cut) =    0.00 sec. (0.45 ticks)
Version identifier: 22.1.0.0 | 2022-03-09 | 1a383f8ce
CPXPARAM_Threads                                 1
CPXPARAM_MIP_Strategy_VariableSelect             3
CPXPARAM_TimeLimit                               599.96050433799996
Found incumbent of value 0.000000 after 0.00 sec. (0.50 ticks)

Root node processing (before b&c):
  Real time             =    0.00 sec. (0.57 ticks)
Sequential b&c:
  Real time             =    0.00 sec. (0.00 ticks)
                          ------------
Total (root+branch&cut) =    0.00 sec. (0.57 ticks)
Version identifier: 22.1.0.0 | 2022-03-09 | 1a383f8ce
CPXPARAM_Threads                                 1
CPXPARAM_MIP_Strategy_VariableSelect             3
CPXPARAM_TimeLimit                               599.92700678599999
Found incumbent of value 0.000000 after 0.00 sec. (0.55 ticks)

Root node processing (before b&c):
  Real time             =    0.00 sec. (0.62 ticks)
Sequential b&c:
  Real time             =    0.00 sec. (0.00 ticks)
                          ------------
Total (root+branch&cut) =    0.00 sec. (0.62 ticks)
Version identifier: 22.1.0.0 | 2022-03-09 | 1a383f8ce
CPXPARAM_Threads                                 1
CPXPARAM_MIP_Strategy_VariableSelect             3
CPXPARAM_TimeLimit                               599.89378846199997
Found incumbent of value 0.000000 after 0.00 sec. (0.59 ticks)

Root node processing (before b&c):
  Real time             =    0.00 sec. (0.67 ticks)
Sequential b&c:
  Real time             =    0.00 sec. (0.00 ticks)
                          ------------
Total (root+branch&cut) =    0.00 sec. (0.67 ticks)
Version identifier: 22.1.0.0 | 2022-03-09 | 1a383f8ce
CPXPARAM_Threads                                 1
CPXPARAM_MIP_Strategy_VariableSelect             3
CPXPARAM_TimeLimit                               599.86267763499995
Tried aggregator 1 time.
MIP Presolve eliminated 712 rows and 1400 columns.
Reduced MIP has 1750 rows, 2800 columns, and 19510 nonzeros.
Reduced MIP has 2800 binaries, 0 generals, 0 SOSs, and 0 indicators.
Presolve time = 0.02 sec. (11.25 ticks)
Found incumbent of value 0.000000 after 0.05 sec. (31.99 ticks)

Root node processing (before b&c):
  Real time             =    0.05 sec. (32.14 ticks)
Sequential b&c:
  Real time             =    0.00 sec. (0.00 ticks)
                          ------------
Total (root+branch&cut) =    0.05 sec. (32.14 ticks)
Version identifier: 22.1.0.0 | 2022-03-09 | 1a383f8ce
CPXPARAM_Threads                                 1
CPXPARAM_MIP_Strategy_VariableSelect             3
CPXPARAM_TimeLimit                               599.78626026100005
Tried aggregator 1 time.
MIP Presolve eliminated 720 rows and 1416 columns.
Reduced MIP has 1770 rows, 2832 columns, and 19734 nonzeros.
Reduced MIP has 2832 binaries, 0 generals, 0 SOSs, and 0 indicators.
Presolve time = 0.02 sec. (11.38 ticks)
Probing time = 0.00 sec. (2.70 ticks)
Tried aggregator 1 time.
Detecting symmetries...
Reduced MIP has 1770 rows, 2832 columns, and 19734 nonzeros.
Reduced MIP has 2832 binaries, 0 generals, 0 SOSs, and 0 indicators.
Presolve time = 0.01 sec. (11.75 ticks)
Probing time = 0.00 sec. (2.70 ticks)
Clique table members: 1059.
MIP emphasis: balance optimality and feasibility.
MIP search method: dynamic search.
Parallel mode: none, using 1 thread.
Root relaxation solution time = 0.02 sec. (21.74 ticks)

        Nodes                                         Cuts/
   Node  Left     Objective  IInf  Best Integer    Best Bound    ItCnt     Gap

      0     0        0.0000   124                      0.0000      553         
*     0+    0                            0.0000        0.0000             0.00%
      0     0        cutoff              0.0000        0.0000      553    0.00%
Elapsed time = 0.19 sec. (145.50 ticks, tree = 0.01 MB, solutions = 1)

Root node processing (before b&c):
  Real time             =    0.19 sec. (145.63 ticks)
Sequential b&c:
  Real time             =    0.00 sec. (0.00 ticks)
                          ------------
Total (root+branch&cut) =    0.19 sec. (145.63 ticks)
Version identifier: 22.1.0.0 | 2022-03-09 | 1a383f8ce
CPXPARAM_Threads                                 1
CPXPARAM_MIP_Strategy_VariableSelect             3
CPXPARAM_TimeLimit                               599.56792315400003
Tried aggregator 1 time.
MIP Presolve eliminated 724 rows and 1424 columns.
Reduced MIP has 1780 rows, 2848 columns, and 19846 nonzeros.
Reduced MIP has 2848 binaries, 0 generals, 0 SOSs, and 0 indicators.
Presolve time = 0.02 sec. (11.44 ticks)
Probing time = 0.00 sec. (2.71 ticks)
Tried aggregator 1 time.
Detecting symmetries...
Reduced MIP has 1780 rows, 2848 columns, and 19846 nonzeros.
Reduced MIP has 2848 binaries, 0 generals, 0 SOSs, and 0 indicators.
Presolve time = 0.01 sec. (11.82 ticks)
Probing time = 0.00 sec. (2.71 ticks)
Clique table members: 1065.
MIP emphasis: balance optimality and feasibility.
MIP search method: dynamic search.
Parallel mode: none, using 1 thread.
Root relaxation solution time = 0.02 sec. (19.28 ticks)

        Nodes                                         Cuts/
   Node  Left     Objective  IInf  Best Integer    Best Bound    ItCnt     Gap

      0     0        0.0000   146                      0.0000      516         
*     0+    0                            0.0000        0.0000             0.00%
      0     0        cutoff              0.0000        0.0000      516    0.00%
Elapsed time = 0.14 sec. (107.27 ticks, tree = 0.01 MB, solutions = 1)

Root node processing (before b&c):
  Real time             =    0.14 sec. (107.40 ticks)
Sequential b&c:
  Real time             =    0.00 sec. (0.00 ticks)
                          ------------
Total (root+branch&cut) =    0.14 sec. (107.40 ticks)
Version identifier: 22.1.0.0 | 2022-03-09 | 1a383f8ce
CPXPARAM_Threads                                 1
CPXPARAM_MIP_Strategy_VariableSelect             3
CPXPARAM_TimeLimit                               599.40404677900005
Tried aggregator 1 time.
MIP Presolve eliminated 726 rows and 1428 columns.
Reduced MIP has 1785 rows, 2856 columns, and 19902 nonzeros.
Reduced MIP has 2856 binaries, 0 generals, 0 SOSs, and 0 indicators.
Presolve time = 0.02 sec. (11.46 ticks)
Probing time = 0.00 sec. (2.71 ticks)
Tried aggregator 1 time.
Detecting symmetries...
Reduced MIP has 1785 rows, 2856 columns, and 19902 nonzeros.
Reduced MIP has 2856 binaries, 0 generals, 0 SOSs, and 0 indicators.
Presolve time = 0.01 sec. (11.84 ticks)
Probing time = 0.00 sec. (2.71 ticks)
Clique table members: 1068.
MIP emphasis: balance optimality and feasibility.
MIP search method: dynamic search.
Parallel mode: none, using 1 thread.
Root relaxation solution time = 0.02 sec. (20.34 ticks)

        Nodes                                         Cuts/
   Node  Left     Objective  IInf  Best Integer    Best Bound    ItCnt     Gap

      0     0        0.0000   136                      0.0000      514         
*     0+    0                            0.0000        0.0000             0.00%
      0     0        cutoff              0.0000        0.0000      514    0.00%
Elapsed time = 0.17 sec. (133.28 ticks, tree = 0.01 MB, solutions = 1)

Root node processing (before b&c):
  Real time             =    0.17 sec. (133.41 ticks)
Sequential b&c:
  Real time             =    0.00 sec. (0.00 ticks)
                          ------------
Total (root+branch&cut) =    0.17 sec. (133.41 ticks)
Primal:	357
Dual:	357
Status:	Optimal
Time:	0.789109
Sequence:
	0
	9
	5
	9
	4
	9
	9
	1
	9
	9
	9
	9
	9
	9
	1
	9
	9
	9
	9
	9
	9
	5
	9
	4
	9
	9
	9
	9
	9
	9
	9
	9
	5
	9
	9
	5
	9
	5
	9
	10
	9
	9
	9
	9
	9
	9
	5
	9
	9
	1
	9
	9
	9
	9
	9
	5
	9
	9
	1
	9
	4
	5
	9
	9
	2
	9
	1
	9
	9
	9
	9
	9
	10
	9
	9
	9
	5
	9
	9
	9
	5
	9
	9
	9
	9
	9
	5
	9
	9
	9
	9
	9
	9
	9
	5
	9
	5
	9
	4
	9
	9
	10
	0
	9
	4
	5
	0
	1
	4
	0
	9
	5
	0
	5
	9
	5
	0
	4
	5
	2
	5
	4
	0
	10
	4
	5
	0
	5
	9
	10
	0
	5
	9
	8
	1
	4
	9
	5
	0
	4
	4
	0
	1
	4
	1
	4
	1
	0
	4
	5
	2
	4
	5
	0
	9
	10
	9
	10
	0
	5
	9
	5
	4
	10
	0
	1
	9
	5
	0
	1
	4
	8
	9
	1
	4
	4
	0
	5
	4
	0
	5
	9
	5
	4
	0
	9
	1
	0
	4
	5
	0
	4
	5
	0
	1
	4
	0
	1
	9
	0
	5
	4
	0
	5
	9
	5
	0
	4
	4
	9
	0
	5
	9
	4
	0
	5
	9
	1
	0
	9
	5
	0
	5
	4
	0
	4
	10
	4
	5
	0
	1
	9
	0
	5
	9
	5
	0
	5
	9
	5
	0
	4
	10
	0
	5
	4
	9
	1
	0
	9
	4
	0
	5
	9
	0
	5
	9
	5
	8
	10
	9
	10
	0
	9
	4
	5
	0
	10
	4
	9
	5
	0
	1
	4
	5
	9
	0
	5
	9
	5
	0
	9
	5
	0
	1
	4
	4
	0
	1
	9
	5
	4
	9
	0
	1
	4
	0
	5
	4
	0
	5
	4
	9
	8
	4
	9
	5
	4
	0
	5
	4
	0
	5
	4
	1
	0
	9
	5
	4
	0
	1
	4
	1
	4
	5
	0
	4
	5
	0
	9
	1
	0
	10
	4
	1
	9
	0
	5
	4
	0
	5
	9
	4
	0
	1
	9
	4
	1
	0
	5
	4
	1
	0
	4
	5
	0
	10
